
Gurobi 13.0.2 (win64) logging started Fri Jul 24 04:45:39 2026

Set parameter LogFile to value "E:\codes\ExactEBRP\results\gf_c0_mechanism_transfer_c5_round30\development\V12_M1__c4_candidate__60s\external\native_logs\L2.0.0.1.1.0.0.0.1_terminal_mip.gurobi.log"
Gurobi Optimizer version 13.0.2 build v13.0.2rc1 (win64 - Windows 10.0 (19045.2))

CPU model: 12th Gen Intel(R) Core(TM) i7-12700KF, instruction set [SSE2|AVX|AVX2]
Thread count: 12 physical cores, 20 logical processors, using up to 1 threads

Non-default parameters:
TimeLimit  8.7871549999999843e-01
MIPGap  0
MIPGapAbs  0
LogToConsole  0
Threads  1

Optimize a model with 6225 rows, 648 columns and 59365 nonzeros (Min)
Model fingerprint: 0x031b154d
Model has 13 linear objective coefficients
Variable types: 347 continuous, 301 integer (253 binary)
Coefficient statistics:
  Matrix range     [2e-03, 1e+05]
  Objective range  [2e-03, 1e+00]
  Bounds range     [1e-01, 8e+01]
  RHS range        [3e-02, 1e+06]

Presolve removed 742 rows and 27 columns
Presolve time: 0.13s
Presolved: 5483 rows, 621 columns, 58745 nonzeros
Variable types: 321 continuous, 300 integer (252 binary)

Root relaxation: objective 3.225297e-01, 895 iterations, 0.05 seconds (0.15 work units)

    Nodes    |    Current Node    |     Objective Bounds      |     Work
 Expl Unexpl |  Obj  Depth IntInf | Incumbent    BestBd   Gap | It/Node Time

     0     0    0.32253    0  115          -    0.32253      -     -    0s
     0     0    0.32744    0   97          -    0.32744      -     -    0s
     0     0    0.32842    0   93          -    0.32842      -     -    0s
     0     0    0.33343    0   97          -    0.33343      -     -    0s
     0     0    0.33541    0   85          -    0.33541      -     -    0s

Cutting planes:
  Learned: 1
  Gomory: 3
  Cover: 13
  Implied bound: 51
  Clique: 26
  MIR: 23
  StrongCG: 2
  Flow cover: 18
  GUB cover: 2
  Zero half: 2
  Network: 1
  RLT: 7
  Relax-and-lift: 8
  BQP: 6
  PSD: 1

Explored 1 nodes (1472 simplex iterations) in 0.88 seconds (1.12 work units)
Thread count was 1 (of 20 available processors)

Solution count 0

Time limit reached
Best objective -, best bound 3.354073610051e-01, gap -

User-callback calls 908, time in user-callback 0.00 sec
